(set-info :smt-lib-version 2.6)
(set-logic QF_SLIA)
(set-info :source |
Generated by: Denghang Hu,
Generated on: 2023-03-29
Application: Evaluate string solvers
Description: The instance consists of:
(1) a regular membership predicate from the real world
(2) a regular membership predicate to sanitize danger letters in javascript such as <,>,&,",'
(3) a lower bound for string length
Target solver: Ostrich, Z3str3, CVC5
|)
(set-info :license "https://creativecommons.org/licenses/by/4.0/")
(set-info :category "industrial")
(set-info :status unknown)
        ;test regex ^ABC-DEF-F1-\d{8}-\d{3}-\d{12}-[\w-]+_\d{4}_V1.DAT.gz$
(declare-const X String)
(assert (str.in_re X (re.++ (re.++ (str.to_re "") (re.++ (str.to_re "A") (re.++ (str.to_re "B") (re.++ (str.to_re "C") (re.++ (str.to_re "-") (re.++ (str.to_re "D") (re.++ (str.to_re "E") (re.++ (str.to_re "F") (re.++ (str.to_re "-") (re.++ (str.to_re "F") (re.++ (str.to_re "1") (re.++ (str.to_re "-") (re.++ ((_ re.loop 8 8) (re.range "0" "9")) (re.++ (str.to_re "-") (re.++ ((_ re.loop 3 3) (re.range "0" "9")) (re.++ (str.to_re "-") (re.++ ((_ re.loop 12 12) (re.range "0" "9")) (re.++ (str.to_re "-") (re.++ (re.+ (re.union (re.union (re.range "a" "z") (re.union (re.range "A" "Z") (re.union (re.range "0" "9") (str.to_re "_")))) (str.to_re "-"))) (re.++ (str.to_re "_") (re.++ ((_ re.loop 4 4) (re.range "0" "9")) (re.++ (str.to_re "_") (re.++ (str.to_re "V") (re.++ (str.to_re "1") (re.++ (re.diff re.allchar (str.to_re "\n")) (re.++ (str.to_re "D") (re.++ (str.to_re "A") (re.++ (str.to_re "T") (re.++ (re.diff re.allchar (str.to_re "\n")) (re.++ (str.to_re "g") (str.to_re "z"))))))))))))))))))))))))))))))) (str.to_re ""))))
; sanitize danger characters:  < > ' " &
(assert (not (str.in_re X (re.++ re.all (re.union (str.to_re "\u{3c}") (str.to_re "\u{3e}") (str.to_re "\u{27}") (str.to_re "\u{22}") (str.to_re "\u{26}")) re.all))))
(assert (< 20 (str.len X)))
(check-sat)
(exit)
